=obj=                -41
x1                   0
x2                   0
x3                   1
x4                   0
x5                   0
x6                   0
x7                   0
x8                   0
x9                   0
x10                  0
x11                  0
x12                  0
x13                  0
x14                  0
x15                  0
x16                  0
x17                  0
x18                  0
x19                  0
x20                  0
x21                  0
x22                  0
x23                  0
x24                  1
x25                  0
x26                  1
x27                  1
x28                  0
x29                  0
x30                  0
x31                  0
x32                  0
x33                  0
x34                  0
x35                  0
x36                  1
x37                  1
x38                  1
x39                  0
x40                  0
x41                  0
x42                  0
x43                  0
x44                  0
x45                  0
x46                  0
x47                  0
x48                  0
x49                  1
x50                  0
x51                  1
x52                  8
x53                  1
x54                  9
x55                  1
x56                  2
x57                  1
x58                  9
x59                  1
x60                  7
x61                  0
x62                  0
x63                  0
x64                  0
x65                  1
x66                  5
x67                  0
x68                  0
x69                  0
x70                  0
x71                  0
x72                  0
x73                  0
x74                  0
x75                  0
x76                  0
x77                  0
x78                  0
x79                  0
x80                  0
x81                  1
x82                  1
x83                  0
x84                  0
x85                  0
x86                  0
x87                  0
x88                  0
x89                  0
x90                  0
x91                  0
x92                  0
x93                  0
x94                  0
x95                  0
x96                  0
x97                  0
x98                  0
x99                  0
x100                 0
x101                 3.3335992
x102                 0
x103                 0
x104                 1.2502991
x105                 0
x106                 0
x107                 0
x108                 5.1189995
x109                 0
x110                 0
x111                 0
x112                 0
x113                 0
x114                 0
x115                 0
x116                 0
x117                 0
x118                 0
x119                 0
x120                 0
x121                 0
x122                 0
x123                 0
x124                 0
x125                 0
x126                 0
x127                 7.9280005
x128                 0
